p tdp 51 50
20 48
8 51
44 29
38 14
7 44
13 10
5 33
46 9
26 21
19 32
42 3
16 33
34 50
38 15
25 46
36 4
22 18
37 47
19 28
14 21
15 6
4 6
31 12
12 37
23 41
35 19
34 49
48 40
11 13
8 9
46 30
9 22
19 8
46 23
47 39
10 29
12 45
7 50
7 3
17 2
27 43
2 12
31 22
1 24
33 24
21 1
5 10
43 48
11 43
17 3
